100
    1   500   500
    2   418   418
    3   276   276
    4   151   151
    5    26    26
    6   168   168
    7    79    79
    8   244   244
    9   364   364
   10   146   146
   11    18    18
   12   165   165
   13   301   301
   14   466   466
   15   180   180
   16   452   452
   17   193   193
   18   347   347
   19   266   266
   20   303   303
   21   272   272
   22   271   271
   23   347   347
   24   299   299
   25   160   160
   26   259   259
   27   132   132
   28   370   370
   29   133   133
   30   431   431
   31   469   469
   32   444   444
   33   393   393
   34   182   182
   35   212   212
   36   174   174
   37   201   201
   38   223   223
   39   474   474
   40    58    58
   41   357   357
   42   350   350
   43   420   420
   44    11    11
   45   496   496
   46    92    92
   47   475   475
   48   288   288
   49     1     1
   50     1     1
   51   492   492
   52    43    43
   53   458   458
   54   312   312
   55   288   288
   56     8     8
   57   438   438
   58    98    98
   59   375   375
   60   437   437
   61   150   150
   62    33    33
   63   356   356
   64    88    88
   65    16    16
   66   352   352
   67    25    25
   68    19    19
   69   304   304
   70   388   388
   71    41    41
   72   121   121
   73   472   472
   74   221   221
   75   281   281
   76   335   335
   77   344   344
   78   211   211
   79   239   239
   80   312   312
   81   427   427
   82    64    64
   83   338   338
   84   394   394
   85   306   306
   86   486   486
   87   390   390
   88    47    47
   89   403   403
   90   287   287
   91   459   459
   92   223   223
   93   102   102
   94   125   125
   95   290   290
   96    69    69
   97   419   419
   98   325   325
   99    12    12
  100   414   414
8631
